50
    1   284   274
    2   457   447
    3   581   571
    4   493   483
    5    71    61
    6   435   425
    7   668   658
    8   619   609
    9   545   535
   10   524   514
   11   802   792
   12  1008   998
   13   570   560
   14    44    34
   15   380   370
   16   314   304
   17   594   584
   18   505   495
   19   899   889
   20   753   743
   21    16     6
   22   410   400
   23   476   466
   24    42    32
   25   929   919
   26   622   612
   27   149   139
   28   545   535
   29   393   383
   30   346   336
   31    37    27
   32   819   809
   33   906   896
   34   745   735
   35   921   911
   36   609   599
   37   638   628
   38   437   427
   39   943   933
   40   976   966
   41   186   176
   42   964   954
   43   264   254
   44   790   780
   45   289   279
   46   687   677
   47   599   589
   48   839   829
   49   417   407
   50   380   370
13210
